(set-option :produce-models true); benchmark generated from python API
(set-info :status unknown)
(declare-fun l_1_0_9 () Real)
(declare-fun l_1_0_8 () Real)
(declare-fun l_1_0_7 () Real)
(declare-fun l_1_0_6 () Real)
(declare-fun l_1_0_5 () Real)
(declare-fun l_1_0_4 () Real)
(declare-fun l_1_0_3 () Real)
(declare-fun l_1_0_2 () Real)
(declare-fun l_1_0_1 () Real)
(declare-fun _a_0_ () Real)
(declare-fun l_1_0_13 () Real)
(declare-fun l_1_0_11 () Real)
(declare-fun l_1_0_12 () Real)
(declare-fun l_1_0_10 () Real)
(declare-fun _a_1_ () Real)
(declare-fun _a_2_ () Real)
(declare-fun l_1_0_14 () Real)
(declare-fun _a_3_ () Real)
(declare-fun _a_4_ () Real)
(declare-fun _a_5_ () Real)
(declare-fun l_1_1_9 () Real)
(declare-fun l_1_1_8 () Real)
(declare-fun l_1_1_5 () Real)
(declare-fun l_1_1_3 () Real)
(declare-fun l_1_1_2 () Real)
(declare-fun l_1_1_15 () Real)
(declare-fun l_1_1_14 () Real)
(declare-fun l_1_1_13 () Real)
(declare-fun l_1_1_11 () Real)
(declare-fun l_1_1_10 () Real)
(declare-fun l_1_1_7 () Real)
(declare-fun l_1_1_6 () Real)
(declare-fun l_1_1_4 () Real)
(declare-fun l_1_1_12 () Real)
(declare-fun l_1_1_1 () Real)
(declare-fun l_1_1_17 () Real)
(declare-fun l_1_1_16 () Real)
(declare-fun l_1_1_20 () Real)
(declare-fun l_1_1_19 () Real)
(declare-fun l_1_1_18 () Real)
(declare-fun l_1_2_9 () Real)
(declare-fun l_1_2_8 () Real)
(declare-fun l_1_2_5 () Real)
(declare-fun l_1_2_3 () Real)
(declare-fun l_1_2_2 () Real)
(declare-fun l_1_2_15 () Real)
(declare-fun l_1_2_14 () Real)
(declare-fun l_1_2_12 () Real)
(declare-fun l_1_2_11 () Real)
(declare-fun l_1_2_10 () Real)
(declare-fun l_1_2_7 () Real)
(declare-fun l_1_2_6 () Real)
(declare-fun l_1_2_4 () Real)
(declare-fun l_1_2_13 () Real)
(declare-fun l_1_2_1 () Real)
(declare-fun l_1_2_19 () Real)
(declare-fun l_1_2_17 () Real)
(declare-fun l_1_2_18 () Real)
(declare-fun l_1_2_16 () Real)
(declare-fun l_1_2_20 () Real)
(assert
 (let ((?x1673 (* l_1_0_9 l_1_0_9)))
 (let ((?x1675 (* 9.0 l_1_0_6)))
 (let ((?x1677 (* 3.0 l_1_0_4)))
 (let ((?x53 (- (+ (+ _a_0_ (* 3.0 l_1_0_1)) (* 3.0 l_1_0_2)) l_1_0_3)))
 (let ((?x43 (- (- (- (- (- (+ ?x53 ?x1677) l_1_0_5) ?x1675) l_1_0_7) l_1_0_8) ?x1673)))
 (= ?x43 0.0)))))))
(assert
 (let ((?x1149 (- (- _a_1_ (* (* 2.0 l_1_0_10) l_1_0_12)) (* (* 2.0 l_1_0_11) l_1_0_13))))
 (= ?x1149 0.0)))
(assert
 (let ((?x1556 (* 22.0 l_1_0_6)))
 (let ((?x1056 (* l_1_0_11 l_1_0_11)))
 (let ((?x1058 (+ (- (- (+ _a_2_ l_1_0_1) (* l_1_0_10 l_1_0_10)) ?x1056) l_1_0_2)))
 (= (- (+ ?x1058 l_1_0_4) ?x1556) 0.0)))))
(assert
 (let ((?x1464 (* 6.0 l_1_0_6)))
 (let ((?x1505 (* l_1_0_14 l_1_0_14)))
 (let ((?x1503 (* l_1_0_13 l_1_0_13)))
 (let ((?x1258 (+ (- (- (- (+ _a_3_ l_1_0_1) (* l_1_0_12 l_1_0_12)) ?x1503) ?x1505) l_1_0_2)))
 (= (- (+ ?x1258 l_1_0_4) ?x1464) 0.0))))))
(assert
 (let ((?x1420 (* 24.0 l_1_0_6)))
 (let ((?x1417 (* 4.0 l_1_0_4)))
 (let ((?x1415 (* 4.0 l_1_0_2)))
 (let ((?x1414 (- (- _a_4_ (* 4.0 l_1_0_1)) (* (* 2.0 l_1_0_10) l_1_0_9))))
 (= (+ (- (- ?x1414 ?x1415) ?x1417) ?x1420) 0.0))))))
(assert
 (= (- _a_5_ (* (* 2.0 l_1_0_12) l_1_0_9)) 0.0))
(assert
 (= (- l_1_0_6) 0.0))
(assert
 (= (* (- 2.0) l_1_0_6) 0.0))
(assert
 (= (* 8.0 l_1_0_6) 0.0))
(assert
 (= (- l_1_0_6) 0.0))
(assert
 (= (* 8.0 l_1_0_6) 0.0))
(assert
 (>= l_1_0_1 0.0))
(assert
 (>= l_1_0_2 0.0))
(assert
 (>= l_1_0_3 0.0))
(assert
 (>= l_1_0_4 0.0))
(assert
 (>= l_1_0_5 0.0))
(assert
 (>= l_1_0_6 0.0))
(assert
 (>= l_1_0_7 0.0))
(assert
 (>= l_1_0_8 0.0))
(assert
 (>= l_1_0_9 0.0))
(assert
 (>= l_1_0_11 0.0))
(assert
 (>= l_1_0_14 0.0))
(assert
 (let ((?x1126 (* l_1_1_15 l_1_1_15)))
 (let ((?x1239 (* _a_0_ l_1_1_7)))
 (let ((?x1237 (* _a_0_ l_1_1_6)))
 (let ((?x1235 (* _a_0_ l_1_1_4)))
 (let ((?x1234 (- (* (* (- 1.0) _a_0_) l_1_1_1) (* (* 1.0 _a_0_) l_1_1_12))))
 (let ((?x1245 (- (- (- (- ?x1234 ?x1235) ?x1237) ?x1239) (* (* l_1_1_10 _a_0_) _a_0_))))
 (let ((?x1128 (- (- (- (- (- ?x1245 (* 1.0 l_1_1_11)) l_1_1_13) l_1_1_14) ?x1126) (* 1.0 l_1_1_2))))
 (let ((?x1139 (- (- (- (- ?x1128 l_1_1_3) l_1_1_5) (* 1.0 l_1_1_8)) (* 1.0 l_1_1_9))))
 (= (+ ?x1139 2.0) 0.0))))))))))
(assert
 (let ((?x630 (* 18.0 l_1_1_2)))
 (let ((?x33 (* l_1_1_17 l_1_1_17)))
 (let ((?x622 (* l_1_1_16 l_1_1_16)))
 (let ((?x29 (* _a_2_ l_1_1_7)))
 (let ((?x1005 (- (- (- (* (- _a_2_) l_1_1_4) (* _a_2_ l_1_1_6)) ?x29) (* l_1_1_1 (- (+ _a_0_ (* 1.0 _a_2_)) (* 4.0 _a_4_))))))
 (let ((?x579 (- ?x1005 (* l_1_1_10 (+ (* (* 2.0 _a_0_) _a_2_) (* _a_4_ _a_4_))))))
 (let ((?x32 (- (- ?x579 l_1_1_11) (* l_1_1_12 (- (+ _a_0_ (* 1.0 _a_2_)) (* 4.0 _a_4_))))))
 (let ((?x957 (- (- (- (- (- (- ?x32 ?x622) ?x33) ?x630) l_1_1_8) l_1_1_9) (/ 1.0 5.0))))
 (= ?x957 0.0))))))))))
(assert
 (let ((?x603 (* 4.0 l_1_1_9)))
 (let ((?x348 (* 4.0 l_1_1_8)))
 (let ((?x600 (* 8.0 l_1_1_2)))
 (let ((?x595 (* 4.0 l_1_1_11)))
 (let ((?x588 (* _a_4_ l_1_1_7)))
 (let ((?x586 (* _a_4_ l_1_1_6)))
 (let ((?x505 (* _a_4_ l_1_1_4)))
 (let ((?x589 (- (- (- (* (* (* (- 2.0) _a_0_) _a_4_) l_1_1_10) ?x505) ?x586) ?x588)))
 (let ((?x38 (+ (- ?x589 (* l_1_1_1 (+ (* (- 4.0) _a_0_) (* 1.0 _a_4_)))) ?x595)))
 (let ((?x599 (- (- ?x38 (* l_1_1_12 (+ (* (- 4.0) _a_0_) (* 1.0 _a_4_)))) (* (* 2.0 l_1_1_15) l_1_1_16))))
 (= (- (+ (+ (+ ?x599 ?x600) ?x348) ?x603) 1.0) 0.0))))))))))))
(assert
 (let ((?x19 (* l_1_1_20 l_1_1_20)))
 (let ((?x22 (* 2.0 l_1_1_2)))
 (let ((?x340 (* l_1_1_19 l_1_1_19)))
 (let ((?x338 (* l_1_1_18 l_1_1_18)))
 (let ((?x373 (* _a_3_ l_1_1_7)))
 (let ((?x378 (- (- (- (* (- _a_3_) l_1_1_4) (* _a_3_ l_1_1_6)) ?x373) (* l_1_1_1 (+ _a_0_ (* 1.0 _a_3_))))))
 (let ((?x333 (- ?x378 (* l_1_1_10 (+ (* (* 2.0 _a_0_) _a_3_) (* _a_5_ _a_5_))))))
 (let ((?x339 (- (- (- ?x333 l_1_1_11) (* l_1_1_12 (+ _a_0_ (* 1.0 _a_3_)))) ?x338)))
 (= (- (- (- (- (- ?x339 ?x340) ?x22) ?x19) l_1_1_8) l_1_1_9) 0.0))))))))))
(assert
 (let ((?x168 (+ (* (* 2.0 _a_0_) _a_1_) (* (* 2.0 _a_4_) _a_5_))))
 (let ((?x199 (* _a_1_ l_1_1_7)))
 (let ((?x165 (- (- (- (* (- _a_1_) l_1_1_4) (* _a_1_ l_1_1_6)) ?x199) (* l_1_1_1 (- (* 1.0 _a_1_) (* 4.0 _a_5_))))))
 (let ((?x174 (- (- ?x165 (* l_1_1_10 ?x168)) (* l_1_1_12 (- (* 1.0 _a_1_) (* 4.0 _a_5_))))))
 (let ((?x135 (- (- ?x174 (* (* 2.0 l_1_1_16) l_1_1_18)) (* (* 2.0 l_1_1_17) l_1_1_19))))
 (= ?x135 0.0)))))))
(assert
 (let ((?x946 (* _a_1_ l_1_1_12)))
 (let ((?x99 (* _a_1_ l_1_1_1)))
 (= (- (- (* (* (* (- 2.0) _a_1_) _a_3_) l_1_1_10) ?x99) ?x946) 0.0))))
(assert
 (let ((?x946 (* _a_1_ l_1_1_12)))
 (let ((?x99 (* _a_1_ l_1_1_1)))
 (= (- (- (* (* (* (- 2.0) _a_1_) _a_2_) l_1_1_10) ?x99) ?x946) 0.0))))
(assert
 (let ((?x607 (+ (* (* 2.0 _a_1_) _a_4_) (* (* 2.0 _a_2_) _a_5_))))
 (let ((?x609 (- (* (- l_1_1_1) (+ (* (- 4.0) _a_1_) _a_5_)) (* l_1_1_10 ?x607))))
 (= (- ?x609 (* l_1_1_12 (+ (* (- 4.0) _a_1_) _a_5_))) 0.0))))
(assert
 (let ((?x22 (* 2.0 l_1_1_2)))
 (let ((?x1433 (- (* (- l_1_1_1) (+ _a_2_ _a_3_)) (* l_1_1_10 (+ (* _a_1_ _a_1_) (* (* 2.0 _a_2_) _a_3_))))))
 (= (- (- ?x1433 (* l_1_1_12 (+ _a_2_ _a_3_))) ?x22) 0.0))))
(assert
 (let ((?x1316 (- (- (* (- _a_2_) l_1_1_1) (* _a_2_ l_1_1_12)) (* (* l_1_1_10 _a_2_) _a_2_))))
 (= (- ?x1316 l_1_1_2) 0.0)))
(assert
 (let ((?x600 (* 8.0 l_1_1_2)))
 (let ((?x457 (- (* (* (* (- 2.0) _a_2_) _a_4_) l_1_1_10) (* l_1_1_1 (+ (* (- 4.0) _a_2_) _a_4_)))))
 (= (+ (- ?x457 (* l_1_1_12 (+ (* (- 4.0) _a_2_) _a_4_))) ?x600) 0.0))))
(assert
 (let ((?x756 (- (- (* (- _a_3_) l_1_1_1) (* _a_3_ l_1_1_12)) (* (* l_1_1_10 _a_3_) _a_3_))))
 (= (- ?x756 l_1_1_2) 0.0)))
(assert
 (let ((?x600 (* 8.0 l_1_1_2)))
 (let ((?x1164 (+ (* (* 2.0 _a_1_) _a_5_) (* (* 2.0 _a_3_) _a_4_))))
 (let ((?x844 (- (* (- l_1_1_1) (+ (* (- 4.0) _a_3_) _a_4_)) (* l_1_1_10 ?x1164))))
 (= (+ (- ?x844 (* l_1_1_12 (+ (* (- 4.0) _a_3_) _a_4_))) ?x600) 0.0)))))
(assert
 (let ((?x1437 (* _a_5_ l_1_1_7)))
 (let ((?x1456 (* _a_5_ l_1_1_6)))
 (let ((?x1450 (* _a_5_ l_1_1_4)))
 (let ((?x637 (- (* (* (* (- 2.0) _a_0_) _a_5_) l_1_1_10) (* (* 1.0 _a_5_) l_1_1_1))))
 (let ((?x1458 (- (- (- (- ?x637 (* (* 1.0 _a_5_) l_1_1_12)) ?x1450) ?x1456) ?x1437)))
 (= (- ?x1458 (* (* 2.0 l_1_1_15) l_1_1_18)) 0.0)))))))
(assert
 (let ((?x950 (* _a_5_ l_1_1_12)))
 (let ((?x103 (* _a_5_ l_1_1_1)))
 (= (- (- (* (* (* (- 2.0) _a_3_) _a_5_) l_1_1_10) ?x103) ?x950) 0.0))))
(assert
 (>= l_1_1_1 0.0))
(assert
 (>= l_1_1_2 0.0))
(assert
 (>= l_1_1_3 0.0))
(assert
 (>= l_1_1_4 0.0))
(assert
 (>= l_1_1_5 0.0))
(assert
 (>= l_1_1_6 0.0))
(assert
 (>= l_1_1_7 0.0))
(assert
 (>= l_1_1_8 0.0))
(assert
 (>= l_1_1_9 0.0))
(assert
 (>= l_1_1_10 0.0))
(assert
 (>= l_1_1_11 0.0))
(assert
 (>= l_1_1_12 0.0))
(assert
 (>= l_1_1_13 0.0))
(assert
 (>= l_1_1_14 0.0))
(assert
 (>= l_1_1_15 0.0))
(assert
 (>= l_1_1_17 0.0))
(assert
 (>= l_1_1_20 0.0))
(assert
 (let ((?x1529 (* l_1_2_15 l_1_2_15)))
 (let ((?x1304 (* _a_0_ l_1_2_7)))
 (let ((?x1303 (* _a_0_ l_1_2_6)))
 (let ((?x1649 (+ (- (* (* 1.0 _a_0_) l_1_2_1) (* _a_0_ l_1_2_13)) (* (* 1.0 _a_0_) l_1_2_4))))
 (let ((?x411 (+ (- (+ (- (- ?x1649 ?x1303) ?x1304) _a_0_) (* 1.0 l_1_2_10)) (* 1.0 l_1_2_11))))
 (let ((?x249 (- (- (- (+ ?x411 (* 1.0 l_1_2_12)) l_1_2_14) ?x1529) (* (* l_1_2_2 _a_0_) _a_0_))))
 (let ((?x407 (- (+ (- (- ?x249 l_1_2_3) l_1_2_5) (* 1.0 l_1_2_8)) l_1_2_9)))
 (= ?x407 0.0)))))))))
(assert
 (let ((?x168 (+ (* (* 2.0 _a_0_) _a_1_) (* (* 2.0 _a_4_) _a_5_))))
 (let ((?x1387 (* (/ 1.0 10.0) _a_4_)))
 (let ((?x1372 (* (/ 81.0 100.0) _a_1_)))
 (let ((?x643 (* _a_1_ l_1_2_7)))
 (let ((?x1373 (+ (- (- (* (- _a_1_) l_1_2_13) (* _a_1_ l_1_2_6)) ?x643) ?x1372)))
 (let ((?x1375 (- (- ?x1373 ?x1387) (* l_1_2_1 (+ (* (- 1.0) _a_1_) (* 4.0 _a_5_))))))
 (let ((?x1274 (- (- ?x1375 (* (* 2.0 l_1_2_16) l_1_2_18)) (* (* 2.0 l_1_2_17) l_1_2_19))))
 (let ((?x927 (- (- ?x1274 (* l_1_2_2 ?x168)) (* l_1_2_4 (+ (* (- 1.0) _a_1_) (* 4.0 _a_5_))))))
 (= ?x927 0.0))))))))))
(assert
 (let ((?x1164 (+ (* (* 2.0 _a_1_) _a_5_) (* (* 2.0 _a_3_) _a_4_))))
 (let ((?x676 (* 8.0 l_1_2_10)))
 (let ((?x484 (+ (- (* (- (/ 9.0 100.0)) _a_1_) (* l_1_2_1 (- (* 4.0 _a_3_) _a_4_))) ?x676)))
 (let ((?x1540 (- (- ?x484 (* l_1_2_2 ?x1164)) (* l_1_2_4 (- (* 4.0 _a_3_) _a_4_)))))
 (= ?x1540 0.0))))))
(assert
 (let ((?x25 (* 4.0 _a_4_)))
 (let ((?x1028 (+ (- (- _a_0_) (* 1.0 _a_2_)) ?x25)))
 (let ((?x391 (* l_1_2_17 l_1_2_17)))
 (let ((?x396 (* l_1_2_16 l_1_2_16)))
 (let ((?x556 (* 18.0 l_1_2_10)))
 (let ((?x638 (* (/ 81.0 100.0) _a_2_)))
 (let ((?x447 (* _a_2_ l_1_2_7)))
 (let ((?x1024 (+ (- (- (* (- _a_2_) l_1_2_13) (* _a_2_ l_1_2_6)) ?x447) ?x638)))
 (let ((?x394 (- (+ (+ (- (- ?x1024 (* l_1_2_1 ?x1028)) ?x556) l_1_2_11) l_1_2_12) ?x396)))
 (let ((?x746 (- (- ?x394 ?x391) (* l_1_2_2 (+ (* (* 2.0 _a_0_) _a_2_) (* _a_4_ _a_4_))))))
 (= (+ (- ?x746 (* l_1_2_4 ?x1028)) l_1_2_8) 0.0))))))))))))
(assert
 (let ((?x607 (+ (* (* 2.0 _a_1_) _a_4_) (* (* 2.0 _a_2_) _a_5_))))
 (let ((?x693 (- (- (* (- (/ 9.0 50.0)) _a_2_) (* l_1_2_1 (- (* 4.0 _a_1_) _a_5_))) (* l_1_2_2 ?x607))))
 (= (- ?x693 (* l_1_2_4 (- (* 4.0 _a_1_) _a_5_))) 0.0))))
(assert
 (let ((?x416 (* 2.0 l_1_2_10)))
 (let ((?x417 (- (- (* (/ 1.0 100.0) _a_2_) (* l_1_2_1 (- (- _a_2_) _a_3_))) ?x416)))
 (let ((?x861 (- ?x417 (* l_1_2_2 (+ (* _a_1_ _a_1_) (* (* 2.0 _a_2_) _a_3_))))))
 (= (- ?x861 (* l_1_2_4 (- (- _a_2_) _a_3_))) 0.0)))))
(assert
 (let ((?x813 (* l_1_2_20 l_1_2_20)))
 (let ((?x904 (* l_1_2_19 l_1_2_19)))
 (let ((?x937 (* l_1_2_18 l_1_2_18)))
 (let ((?x416 (* 2.0 l_1_2_10)))
 (let ((?x981 (* (/ 81.0 100.0) _a_3_)))
 (let ((?x1004 (* _a_3_ l_1_2_7)))
 (let ((?x982 (+ (- (- (* (- _a_3_) l_1_2_13) (* _a_3_ l_1_2_6)) ?x1004) ?x981)))
 (let ((?x935 (+ (- (- ?x982 (* l_1_2_1 (- (- _a_0_) (* 1.0 _a_3_)))) ?x416) l_1_2_11)))
 (let ((?x812 (- (- (- (+ ?x935 l_1_2_12) ?x937) ?x904) (* l_1_2_2 (+ (* (* 2.0 _a_0_) _a_3_) (* _a_5_ _a_5_))))))
 (let ((?x775 (+ (- (- ?x812 ?x813) (* l_1_2_4 (- (- _a_0_) (* 1.0 _a_3_)))) l_1_2_8)))
 (= ?x775 0.0))))))))))))
(assert
 (let ((?x1701 (* 4.0 l_1_2_8)))
 (let ((?x1694 (* 4.0 l_1_2_12)))
 (let ((?x1692 (* 4.0 l_1_2_11)))
 (let ((?x676 (* 8.0 l_1_2_10)))
 (let ((?x1685 (* (/ 9.0 10.0) _a_4_)))
 (let ((?x1682 (* _a_4_ l_1_2_7)))
 (let ((?x1680 (* _a_4_ l_1_2_6)))
 (let ((?x71 (* _a_4_ l_1_2_13)))
 (let ((?x1683 (- (- (- (* (* (* (- 2.0) _a_0_) _a_4_) l_1_2_2) ?x71) ?x1680) ?x1682)))
 (let ((?x1690 (- (+ ?x1683 ?x1685) (* l_1_2_1 (- (* 4.0 _a_0_) (* 1.0 _a_4_))))))
 (let ((?x1698 (- (- (- (+ ?x1690 ?x676) ?x1692) ?x1694) (* (* 2.0 l_1_2_15) l_1_2_16))))
 (let ((?x1702 (- (- ?x1698 (* l_1_2_4 (- (* 4.0 _a_0_) (* 1.0 _a_4_)))) ?x1701)))
 (= ?x1702 0.0))))))))))))))
(assert
 (let ((?x1774 (* (/ 9.0 10.0) _a_5_)))
 (let ((?x1772 (* _a_5_ l_1_2_7)))
 (let ((?x1770 (* _a_5_ l_1_2_6)))
 (let ((?x1766 (* _a_5_ l_1_2_13)))
 (let ((?x1765 (+ (* (* (* (- 2.0) _a_0_) _a_5_) l_1_2_2) (* (* 1.0 _a_5_) l_1_2_1))))
 (let ((?x1773 (- (- (+ (- ?x1765 ?x1766) (* (* 1.0 _a_5_) l_1_2_4)) ?x1770) ?x1772)))
 (= (- (+ ?x1773 ?x1774) (* (* 2.0 l_1_2_15) l_1_2_18)) 0.0))))))))
(assert
 (let ((?x786 (* _a_1_ l_1_2_4)))
 (let ((?x669 (* _a_1_ l_1_2_1)))
 (= (+ (+ (* (* (* (- 2.0) _a_1_) _a_3_) l_1_2_2) ?x669) ?x786) 0.0))))
(assert
 (let ((?x786 (* _a_1_ l_1_2_4)))
 (let ((?x669 (* _a_1_ l_1_2_1)))
 (= (+ (+ (* (* (* (- 2.0) _a_1_) _a_2_) l_1_2_2) ?x669) ?x786) 0.0))))
(assert
 (let ((?x1826 (- (- (+ (* _a_2_ l_1_2_1) (* _a_2_ l_1_2_4)) l_1_2_10) (* (* l_1_2_2 _a_2_) _a_2_))))
 (= ?x1826 0.0)))
(assert
 (let ((?x676 (* 8.0 l_1_2_10)))
 (let ((?x1840 (- (* (* (* (- 2.0) _a_2_) _a_4_) l_1_2_2) (* l_1_2_1 (- (* 4.0 _a_2_) _a_4_)))))
 (= (- (+ ?x1840 ?x676) (* l_1_2_4 (- (* 4.0 _a_2_) _a_4_))) 0.0))))
(assert
 (let ((?x1880 (- (- (+ (* _a_3_ l_1_2_1) (* _a_3_ l_1_2_4)) l_1_2_10) (* (* l_1_2_2 _a_3_) _a_3_))))
 (= ?x1880 0.0)))
(assert
 (let ((?x811 (* _a_5_ l_1_2_4)))
 (let ((?x1476 (* _a_5_ l_1_2_1)))
 (= (+ (+ (* (* (* (- 2.0) _a_3_) _a_5_) l_1_2_2) ?x1476) ?x811) 0.0))))
(assert
 (>= l_1_2_1 0.0))
(assert
 (>= l_1_2_2 0.0))
(assert
 (>= l_1_2_3 0.0))
(assert
 (>= l_1_2_4 0.0))
(assert
 (>= l_1_2_5 0.0))
(assert
 (>= l_1_2_6 0.0))
(assert
 (>= l_1_2_7 0.0))
(assert
 (>= l_1_2_8 0.0))
(assert
 (>= l_1_2_9 0.0))
(assert
 (>= l_1_2_10 0.0))
(assert
 (>= l_1_2_11 0.0))
(assert
 (>= l_1_2_12 0.0))
(assert
 (>= l_1_2_13 0.0))
(assert
 (>= l_1_2_14 0.0))
(assert
 (>= l_1_2_15 0.0))
(assert
 (>= l_1_2_17 0.0))
(assert
 (>= l_1_2_20 0.0))
(check-sat)
(get-model)